Si8
1.0
   5.4218887270193576    0.0000000000000000    0.0000000000000003
  -0.0000000000000003    5.4218887270193576    0.0000000000000003
   0.0000000000000000    0.0000000000000000    5.4218887270193576
 Ag
 8
Direct
   0.0000000000000000    0.0000000000000000    0.5000000000000000 
   0.2500000000000000    0.7500000000000000    0.2500000000000000 
   0.0000000000000000    0.5000000000000000    0.0000000000000000 
   0.2500000000000000    0.2500000000000000    0.7500000000000000 
   0.5000000000000000    0.0000000000000000    0.0000000000000000 
   0.7500000000000000    0.7500000000000000    0.7500000000000000 
   0.5000000000000000    0.5000000000000000    0.5000000000000000 
   0.7500000000000000    0.2500000000000000    0.2500000000000000 
